NAME : n40w100.004.476.tour
COMMENT : Length = 476
COMMENT : Found by LKH [Keld Helsgaun] Tue May  2 05:46:14 2017
TYPE : TOUR
DIMENSION : 41
TOUR_SECTION
1
3
4
19
17
25
12
29
18
11
7
20
28
27
21
2
40
16
30
38
22
8
23
6
24
33
15
14
35
39
34
9
13
26
36
37
41
10
31
32
5
-1
EOF
